NAME: instance_1926
TYPE: TSP
DIMENSION: 20
EDGE_WEIGHT_TYPE: EUC_2D
NODE_COORD_SECTION
0 49.87 86.22
1 12.88 37.25
2 11.35 15.38
3 73.90 15.58
4 84.83 97.31
5 49.91 1.26
6 21.96 19.55
7 13.21 30.97
8 7.06 12.58
9 1.71 77.39
10 48.87 8.31
11 58.85 60.78
12 34.88 66.52
13 14.14 46.57
14 72.96 83.55
15 56.95 96.46
16 38.46 17.53
17 58.71 32.04
18 52.12 1.22
19 10.50 29.09
EOF
